NAME:  test1
TYPE: AGTSP
COMMENT: gtsp tours
DIMENSION:  37
GTSP_SETS: 13
EDGE_WEIGHT_TYPE: EXPLICIT
EDGE_WEIGHT_FORMAT: FULL_MATRIX 
EDGE_WEIGHT_SECTION
999999	0	999999	18451	18451	999999	18459	18459	999999	18469	18469	999999	18441	18441	18433	18457	18457	999999	18451	18451	999999	18445	18445	18437	18440	18440	18432	18448	18448	18440	18447	18447	18439	18455	18455	999999	0
999999	999999	0	18451	18451	18451	18459	18459	18459	18469	18469	18469	18441	18441	18441	18457	18457	18457	18451	18451	18451	18445	18445	18445	18440	18440	18440	18448	18448	18448	18447	18447	18447	18455	18455	18455	0
0	999999	999999	18451	18451	18443	18459	18459	18451	18469	18469	18461	18441	18433	999999	18457	18457	18449	18451	18451	18443	18445	18437	999999	18440	18432	999999	18448	18440	999999	18447	18439	999999	18455	18455	18447	0
18451	18451	999999	999999	0	999999	18437	18437	18429	18464	18464	999999	18461	18461	999999	18478	18478	999999	18478	18478	999999	18439	18439	18431	18469	18469	999999	18467	18467	999999	18424	18424	18416	18469	18469	999999	0
18451	18451	18451	999999	999999	0	18437	18437	18437	18464	18464	18464	18461	18461	18461	18478	18478	18478	18478	18478	18478	18439	18439	18439	18469	18469	18469	18467	18467	18467	18424	18424	18424	18469	18469	18469	0
18451	18451	18443	0	999999	999999	18437	18429	999999	18464	18464	18456	18461	18461	18453	18478	999999	999999	18478	999999	999999	18439	18431	999999	18469	18469	18461	18467	18467	18459	18424	18416	999999	18469	18469	18461	0
18459	18459	999999	18437	18437	18429	999999	0	999999	18450	18450	999999	18474	18474	999999	18476	18476	999999	18481	18481	999999	18455	18455	999999	18474	18474	999999	18465	18465	999999	18438	18438	18430	18464	18464	999999	0
18459	18459	18459	18437	18437	18437	999999	999999	0	18450	18450	18450	18474	18474	18474	18476	18476	18476	18481	18481	18481	18455	18455	18455	18474	18474	18474	18465	18465	18465	18438	18438	18438	18464	18464	18464	0
18459	18459	18451	18437	18429	999999	0	999999	999999	18450	18450	18442	18474	18474	18466	18476	18476	18468	18481	999999	999999	18455	18455	18447	18474	18474	18466	18465	18465	18457	18438	18430	999999	18464	18464	18456	0
18469	18469	999999	18464	18464	999999	18450	18450	999999	999999	0	999999	18489	18489	999999	18464	18464	999999	18475	18475	999999	18478	18478	999999	18474	18474	999999	18456	18456	999999	18462	18462	999999	18450	18450	999999	0
18469	18469	18469	18464	18464	18464	18450	18450	18450	999999	999999	0	18489	18489	18489	18464	18464	18464	18475	18475	18475	18478	18478	18478	18474	18474	18474	18456	18456	18456	18462	18462	18462	18450	18450	18450	0
18469	18469	18461	18464	18464	18456	18450	18450	18442	0	999999	999999	18489	999999	999999	18464	18464	18456	18475	18475	18467	18478	999999	999999	18474	18474	18466	18456	18456	18448	18462	18462	18454	18450	18450	18442	0
18441	18441	18433	18461	18461	999999	18474	18474	999999	18489	18489	999999	999999	0	999999	18472	18472	999999	18461	18461	999999	18446	18446	18438	18450	18450	999999	18466	18466	999999	18459	18459	999999	18473	18473	999999	0
18441	18441	18441	18461	18461	18461	18474	18474	18474	18489	18489	18489	999999	999999	0	18472	18472	18472	18461	18461	18461	18446	18446	18446	18450	18450	18450	18466	18466	18466	18459	18459	18459	18473	18473	18473	0
18441	18433	999999	18461	18461	18453	18474	18474	18466	18489	999999	999999	0	999999	999999	18472	18472	18464	18461	18461	18453	18446	18438	999999	18450	18450	18442	18466	18466	18458	18459	18459	18451	18473	18473	18465	0
18457	18457	999999	18478	18478	999999	18476	18476	999999	18464	18464	999999	18472	18472	999999	999999	0	999999	18436	18436	18428	18479	18479	999999	18444	18444	18436	18432	18432	18424	18474	18474	999999	18435	18435	18427	0
18457	18457	18457	18478	18478	18478	18476	18476	18476	18464	18464	18464	18472	18472	18472	999999	999999	0	18436	18436	18436	18479	18479	18479	18444	18444	18444	18432	18432	18432	18474	18474	18474	18435	18435	18435	0
18457	18457	18449	18478	999999	999999	18476	18476	18468	18464	18464	18456	18472	18472	18464	0	999999	999999	18436	18428	999999	18479	999999	999999	18444	18436	999999	18432	18424	999999	18474	18474	18466	18435	18427	999999	0
18451	18451	999999	18478	18478	999999	18481	18481	999999	18475	18475	999999	18461	18461	999999	18436	18436	18428	999999	0	999999	18475	18475	999999	18433	18433	18425	18440	18440	18432	18474	18474	999999	18447	18447	18439	0
18451	18451	18451	18478	18478	18478	18481	18481	18481	18475	18475	18475	18461	18461	18461	18436	18436	18436	999999	999999	0	18475	18475	18475	18433	18433	18433	18440	18440	18440	18474	18474	18474	18447	18447	18447	0
18451	18451	18443	18478	999999	999999	18481	999999	999999	18475	18475	18467	18461	18461	18453	18436	18428	999999	0	999999	999999	18475	18475	18467	18433	18425	999999	18440	18432	999999	18474	18474	18466	18447	18439	999999	0
18445	18445	18437	18439	18439	18431	18455	18455	999999	18478	18478	999999	18446	18446	18438	18479	18479	999999	18475	18475	999999	999999	0	999999	18464	18464	999999	18469	18469	999999	18438	18438	18430	18474	18474	999999	0
18445	18445	18445	18439	18439	18439	18455	18455	18455	18478	18478	18478	18446	18446	18446	18479	18479	18479	18475	18475	18475	999999	999999	0	18464	18464	18464	18469	18469	18469	18438	18438	18438	18474	18474	18474	0
18445	18437	999999	18439	18431	999999	18455	18455	18447	18478	999999	999999	18446	18438	999999	18479	999999	999999	18475	18475	18467	0	999999	999999	18464	18464	18456	18469	18469	18461	18438	18430	999999	18474	18474	18466	0
18440	18440	18432	18469	18469	999999	18474	18474	999999	18474	18474	999999	18450	18450	999999	18444	18444	18436	18433	18433	18425	18464	18464	999999	999999	0	999999	18441	18441	18433	18465	18465	999999	18450	18450	999999	0
18440	18440	18440	18469	18469	18469	18474	18474	18474	18474	18474	18474	18450	18450	18450	18444	18444	18444	18433	18433	18433	18464	18464	18464	999999	999999	0	18441	18441	18441	18465	18465	18465	18450	18450	18450	0
18440	18432	999999	18469	18469	18461	18474	18474	18466	18474	18474	18466	18450	18450	18442	18444	18436	999999	18433	18425	999999	18464	18464	18456	0	999999	999999	18441	18433	999999	18465	18465	18457	18450	18450	18442	0
18448	18448	18440	18467	18467	999999	18465	18465	999999	18456	18456	999999	18466	18466	999999	18432	18432	18424	18440	18440	18432	18469	18469	999999	18441	18441	18433	999999	0	999999	18463	18463	999999	18429	18429	18421	0
18448	18448	18448	18467	18467	18467	18465	18465	18465	18456	18456	18456	18466	18466	18466	18432	18432	18432	18440	18440	18440	18469	18469	18469	18441	18441	18441	999999	999999	0	18463	18463	18463	18429	18429	18429	0
18448	18440	999999	18467	18467	18459	18465	18465	18457	18456	18456	18448	18466	18466	18458	18432	18424	999999	18440	18432	999999	18469	18469	18461	18441	18433	999999	0	999999	999999	18463	18463	18455	18429	18421	999999	0
18447	18447	18439	18424	18424	18416	18438	18438	18430	18462	18462	999999	18459	18459	999999	18474	18474	999999	18474	18474	999999	18438	18438	18430	18465	18465	999999	18463	18463	999999	999999	0	999999	18466	18466	999999	0
18447	18447	18447	18424	18424	18424	18438	18438	18438	18462	18462	18462	18459	18459	18459	18474	18474	18474	18474	18474	18474	18438	18438	18438	18465	18465	18465	18463	18463	18463	999999	999999	0	18466	18466	18466	0
18447	18439	999999	18424	18416	999999	18438	18430	999999	18462	18462	18454	18459	18459	18451	18474	18474	18466	18474	18474	18466	18438	18430	999999	18465	18465	18457	18463	18463	18455	0	999999	999999	18466	18466	18458	0
18455	18455	999999	18469	18469	999999	18464	18464	999999	18450	18450	999999	18473	18473	999999	18435	18435	18427	18447	18447	18439	18474	18474	999999	18450	18450	999999	18429	18429	18421	18466	18466	999999	999999	0	999999	0
18455	18455	18455	18469	18469	18469	18464	18464	18464	18450	18450	18450	18473	18473	18473	18435	18435	18435	18447	18447	18447	18474	18474	18474	18450	18450	18450	18429	18429	18429	18466	18466	18466	999999	999999	0	0
18455	18455	18447	18469	18469	18461	18464	18464	18456	18450	18450	18442	18473	18473	18465	18435	18427	999999	18447	18439	999999	18474	18474	18466	18450	18450	18442	18429	18421	999999	18466	18466	18458	0	999999	999999	0
18413	999999	999999	18413	999999	999999	18413	999999	999999	18413	999999	999999	18413	999999	999999	18413	999999	999999	18413	999999	999999	18413	999999	999999	18413	999999	999999	18413	999999	999999	18413	999999	999999	18413	999999	999999	999999
GTSP_SET_SECTION:
1 1 2 3 -1
2 4 5 6 -1
3 7 8 9 -1
4 10 11 12 -1
5 13 14 15 -1
6 16 17 18 -1
7 19 20 21 -1
8 22 23 24 -1
9 25 26 27 -1
10 28 29 30 -1
11 31 32 33 -1
12 34 35 36 -1
13 37 -1
EOF